c --- [ banner ] -------------------------------------------------------------
c 
c CaDiCaL Radically Simplified CDCL SAT Solver
c Copyright (c) 2016-2021 A. Biere, M. Fleury, N. Froleyks
c 
c Version 1.5.2 a5f15211db36c3956764e18194dd5bd63bf3b5e6
c g++ (GCC) 9.3.0 -Wall -Wextra -O3 -DNDEBUG
c Fri Oct 21 01:27:37 EDT 2022 Linux gra-login3 3.10.0-1160.66.1.el7.x86_64 x86_64
c 
c --- [ limit ] --------------------------------------------------------------
c 
c setting conflict limit to 200000 conflicts (due to '200000')
c 
c --- [ parsing input ] ------------------------------------------------------
c 
c reading DIMACS file from '33.cubes584.adj'
c opening file to read '33.cubes584.adj'
c found 'p cnf 6160 1595469' header
c parsed 1595469 clauses in 18.97 seconds process time
c closing file '33.cubes584.adj'
c after reading 1457566735 bytes 1390.0 MB
c 
c --- [ options ] ------------------------------------------------------------
c 
c all options are set to their default value
c 
c --- [ solving ] ------------------------------------------------------------
c 
c time measured in process time since initialization
c 
c  seconds    reductions  redundant   irredundant
c          MB     restarts       trail       variables
c            level   conflicts       glue         remaining
c 
c * 18.98 1358  0 0   0    0    0  0% 0 1595422 2401 39%
c { 20.95 1433  0 0   0    0    0  0% 0 1595422 2401 39%
c i 23.48 1485 660 0   4   35   28 36% 9 1595422 2400 39%
c i 23.49 1485 641 0   4   36   28 36% 9 1595422 2399 39%
c i 23.49 1485 624 0   4   37   28 36% 8 1595422 2398 39%
c i 23.58 1485 577 0   4   40   30 35% 8 1595422 2397 39%
c i 23.97 1489 510 0   5   46   35 34% 11 1595422 2390 39%
c i 24.42 1492 400 0   7   61   44 32% 14 1595422 2388 39%
c i 24.67 1492 363 0   9   69   50 32% 16 1595422 2387 39%
c i 24.75 1492 349 0  10   72   52 32% 17 1595422 2386 39%
c i 24.93 1495 332 0  12   76   55 31% 17 1595422 2339 38%
c i 25.07 1498 320 0  13   79   57 31% 18 1595422 2338 38%
c i 25.64 1501 257 0  17  102   75 30% 16 1595422 2330 38%
c i 26.63 1505 208 0  19  134  103 29% 18 1595422 2328 38%
c i 26.88 1505 193 0  23  147  114 30% 19 1595422 2327 38%
c i 26.89 1505 192 0  23  148  114 30% 19 1595422 2326 38%
c i 27.24 1506 175 0  25  168  131 29% 18 1595422 2325 38%
c i 27.27 1506 173 0  25  171  133 29% 18 1595422 2324 38%
c i 27.90 1509 154 0  29  211  166 29% 19 1595422 2323 38%
c i 27.97 1509 154 0  30  216  170 29% 19 1595422 2322 38%
c 
c  seconds     reductions  redundant    irredundant
c          MB      restarts       trail        variables
c             level   conflicts       glue          remaining
c 
c i 28.36 1510 150 0  34  233  184 28% 21 1595422 2321 38%
c i 29.43 1512 139 0  47  283  229 28% 22 1595422 2320 38%
c - 33.99 1454 135 1  53  301  242 28% 23 335215 2320 38%
c i 34.17 1455 128 1  57  319  247 28% 22 335215 2319 38%
c i 34.83 1358 99 1  60  490  317 26% 20 335215 2318 38%
c i 34.90 1358 99 1  60  495  319 26% 20 335215 2316 38%
c i 35.01 1358 99 1  61  504  326 26% 21 335215 2315 38%
c i 35.08 1358 98 1  62  506  327 26% 20 335215 2314 38%
c i 35.17 1358 98 1  63  513  333 26% 21 335215 2313 38%
c i 35.22 1358 97 1  64  516  335 26% 21 335215 2312 38%
c i 35.33 1358 97 1  66  520  338 26% 21 335215 2311 38%
c i 35.33 1358 97 1  66  521  338 26% 21 335215 2310 38%
c i 35.33 1358 96 1  66  522  338 26% 20 335215 2309 37%
c i 35.36 1358 96 1  67  524  339 26% 20 335215 2308 37%
c i 35.36 1358 96 1  67  526  340 26% 20 335215 2307 37%
c i 35.40 1358 96 1  67  527  340 26% 20 335215 2306 37%
c i 35.55 1358 97 1  68  541  352 26% 21 335215 2305 37%
c i 35.64 1358 97 1  69  545  355 26% 21 335215 2304 37%
c i 35.80 1358 96 1  74  569  373 26% 21 335215 2303 37%
c i 35.83 1358 95 1  75  573  376 26% 21 335215 2302 37%
c 
c  seconds    reductions  redundant   irredundant
c          MB     restarts       trail       variables
c            level   conflicts       glue         remaining
c 
c i 36.68 1359 89 1  76  623  416 26% 20 335215 2301 37%
c i 36.69 1359 89 1  76  625  413 26% 20 335215 2300 37%
c i 36.75 1359 88 1  76  634  417 26% 20 335215 2299 37%
c i 36.98 1359 85 1  76  662  433 26% 20 335215 2298 37%
c i 37.32 1359 81 1  76  706  451 26% 19 335215 2297 37%
c i 37.36 1359 81 1  76  707  451 26% 19 335215 2296 37%
c i 37.47 1359 81 1  76  711  454 26% 19 335215 2295 37%
c i 37.58 1359 82 1  78  721  463 26% 20 335215 2294 37%
c i 37.62 1359 82 1  80  728  468 26% 20 335215 2293 37%
c i 37.65 1359 82 1  81  732  469 26% 21 335215 2292 37%
c i 37.71 1359 82 1  82  738  472 26% 21 335215 2291 37%
c i 37.85 1359 81 1  85  756  484 26% 21 335215 2290 37%
c i 38.53 1359 77 1  96  829  543 26% 21 335215 2289 37%
c i 39.40 1359 76 1 104  895  605 26% 21 335215 2288 37%
c i 39.46 1359 76 1 104  900  609 26% 21 335215 2287 37%
c i 39.48 1359 76 1 104  902  610 26% 21 335215 2286 37%
c i 39.50 1359 75 1 104  910  617 26% 21 335215 2285 37%
c i 39.54 1359 75 1 104  911  617 26% 21 335215 2284 37%
c i 39.69 1359 76 1 105  920  625 26% 21 335215 2283 37%
c i 40.41 1360 75 1 111  960  660 26% 21 335215 2282 37%
c 
c  seconds    reductions  redundant   irredundant
c          MB     restarts       trail       variables
c            level   conflicts       glue         remaining
c 
c i 40.87 1360 75 1 114  989  687 26% 21 335215 2281 37%
c } 40.91 1360 74 1 114 1000  698 26% 21 335215 2281 37%
c [ 40.91 1360  0 1 114 1000  698  0% 0 335215 2281 37%
c O 40.96 1360 35 1 114 1003  700 22% 10 335215 2281 37%
c i 41.21 1360  9 1 114 1044  708 22% 7 335215 2280 37%
c i 41.26 1360 10 1 114 1051  712 23% 8 335215 2279 37%
c i 41.26 1360  9 1 114 1052  712 23% 8 335215 2278 37%
c i 41.28 1360  9 1 114 1055  710 24% 8 335215 2277 37%
c i 41.31 1360 10 1 114 1060  714 24% 8 335215 2276 37%
c i 41.32 1360 10 1 114 1063  716 25% 8 335215 2275 37%
c i 41.36 1360 11 1 114 1076  725 26% 9 335215 2274 37%
c i 41.41 1360 11 1 114 1105  730 28% 10 335215 2273 37%
c i 41.44 1360 12 1 114 1132  733 29% 10 335215 2272 37%
c i 41.46 1360 12 1 114 1156  740 29% 11 335215 2271 37%
c i 41.46 1360 12 1 114 1157  740 29% 11 335215 2270 37%
c i 41.47 1360 12 1 114 1165  747 29% 11 335215 2269 37%
c i 41.48 1360 12 1 114 1188  756 30% 11 335215 2268 37%
c - 42.19 1484 13 2 114 1216  650 30% 12 335059 2268 37%
c i 42.32 1484 13 2 114 1227  658 30% 12 335059 2267 37%
c i 42.33 1484 13 2 114 1232  662 30% 12 335059 2266 37%
c 
c  seconds    reductions  redundant   irredundant
c          MB     restarts       trail       variables
c            level   conflicts       glue         remaining
c 
c i 42.34 1484 13 2 114 1235  663 30% 12 335059 2265 37%
c i 42.34 1484 13 2 114 1237  663 30% 12 335059 2264 37%
c i 42.34 1484 13 2 114 1238  663 30% 12 335059 2263 37%
c i 42.42 1484 13 2 114 1259  678 30% 12 335059 2262 37%
c i 42.60 1484 14 2 114 1419  760 31% 12 335059 2261 37%
c i 42.66 1484 14 2 114 1498  797 31% 12 335059 2260 37%
c i 42.72 1484 15 2 114 1589  860 31% 14 335059 2259 37%
c i 42.76 1484 16 2 114 1615  876 31% 14 335059 2258 37%
c i 42.79 1484 16 2 114 1640  888 31% 14 335059 2257 37%
c i 42.82 1484 16 2 114 1681  916 30% 14 335059 2256 37%
c i 42.84 1484 16 2 114 1708  927 30% 14 335059 2255 37%
c i 42.86 1484 16 2 114 1728  937 31% 14 335059 2254 37%
c ] 42.87 1484 16 2 114 1751  952 31% 14 335059 2254 37%
c 1 42.87 1484 16 2 114 1751  952 31% 14 335059 2254 37%
c 
c --- [ writing output ] -----------------------------------------------------
c 
c writing simplified CNF to DIMACS file 'simp/33.cubes584.adj.simp1'
c * 42.87 1484 16 2 114 1751  952 31% 14 335059 2254 37%
c opening file to write 'simp/33.cubes584.adj.simp1'
c writing 'p cnf 6160 335017' header
c closing file 'simp/33.cubes584.adj.simp1'
c after writing 136156076 bytes 129.8 MB
c wrote 335017 clauses in 1.11 seconds process time
c 
c --- [ writing extension ] --------------------------------------------------
c 
c writing extension stack to 'simp/33.cubes584.adj.ext1'
c opening file to write 'simp/33.cubes584.adj.ext1'
c closing file 'simp/33.cubes584.adj.ext1'
c after writing 11388 bytes 0.0 MB
c wrote 762 witnesses in 0.00 seconds process time
c 
c --- [ result ] -------------------------------------------------------------
c 
s SATISFIABLE
c 
c --- [ run-time profiling ] -------------------------------------------------
c 
c process time taken by individual solving procedures
c (percentage relative to process time for solving)
c 
c        23.90  100.00% search
c        19.96   83.52% unstable
c        18.97   79.40% parse
c         1.98    8.28% lucky
c         1.96    8.20% stable
c         0.00    0.00% simplify
c   =================================
c        23.90   54.34% solve
c 
c last line shows process time for solving
c (percentage relative to total process time)
c 
c --- [ statistics ] ---------------------------------------------------------
c 
c chronological:               494        28.21 %  of conflicts
c conflicts:                  1751        73.27    per second
c decisions:                 17643       738.30    per second
c fixed:                       762        12.37 %  of all variables
c learned:                    1709        97.60 %  per conflict
c learned_lits:             220267       100.00 %  learned literals
c minimized:                     0         0.00 %  learned literals
c shrunken:                 152810        69.37 %  learned literals
c minishrunken:               9542         4.33 %  learned literals
c propagations:             333027         0.01 M  per second
c reduced:                     116         6.62 %  per conflict
c rephased:                      1      1751.00    interval
c restarts:                    114        15.36    interval
c stabilizing:                   1        42.89 %  of conflicts
c subsumed:                    553         0.02 %  of all clauses
c 
c seconds are measured in process time for solving
c 
c --- [ resources ] ----------------------------------------------------------
c 
c total process time since initialization:        43.98    seconds
c total real time since initialization:           44.79    seconds
c maximum resident set size of process:         1511.82    MB
c 
c --- [ shutting down ] ------------------------------------------------------
c 
c exit 10
WARNING! DIMACS header mismatch: wrong number of variables.
============================[ Problem Statistics ]=============================
|                                                                             |
|  Number of variables:          6120                                         |
|  Number of clauses:          335017                                         |
|  Parse time:                   1.86 s                                       |
|  Simplification time:          0.04 s                                       |
|                                                                             |
============================[ Search Statistics ]====================================================
| Conflicts |          ORIGINAL         |          LEARNT          | Num Sols |      SUBGRAPHS      |
|           |    Vars  Clauses Literals |    Limit  Clauses Lit/Cl |          | Canonical Noncanon. |
=====================================================================================================
|       101 |    6018   335018 30303824 |     2000       95     96 |        0 |        22         1 |
|       535 |    6014   335302 30310933 |     2000      525     49 |        0 |        90       285 |
|      1016 |    6011   335558 30315632 |     2000     1003     43 |        0 |       143       541 |
|      1358 |    6006   335563 30315843 |     2000     1340     58 |        0 |       168       546 |
|      1880 |    5994   335579 30316268 |     2000     1850     57 |        0 |       202       562 |
|      2685 |    5991   335625 30317447 |     3589     1671     47 |        0 |       220       608 |
|      3874 |    5991   335675 30319146 |     3589     2860     66 |        0 |       251       658 |
|      5963 |    5988   336056 30327493 |     4995     3158     45 |        0 |       358      1039 |
|      8913 |    5986   336444 30335245 |     6302     3615     48 |        0 |       480      1427 |
|     12860 |    5985   336547 30338158 |     7559     4419     52 |        0 |       573      1530 |
|     20342 |    5985   338263 30375351 |     8790     8132     54 |        0 |       984      3246 |
|     30224 |    5985   339496 30398039 |    11198     8622     51 |        0 |      1212      4479 |
|     49635 |    5985   345933 30500362 |    14807     9442     38 |        0 |      2368     10916 |
|     73807 |    5984   350644 30594200 |    18412     9619     29 |        0 |      3356     15627 |
|    109604 |    5984   357249 30714222 |    22014    16018     44 |        0 |      5007     22232 |
|    162187 |    5984   366043 30877302 |    26812    20999     56 |        0 |      7494     31026 |
|    244459 |    5984   382511 31130719 |    32808    30259     60 |        0 |     10793     47614 |
|    375496 |    5984   415022 31619414 |    41209    33905     55 |        0 |     17639     80125 |
|    566093 |    5984   457830 32246601 |    50809    42902     48 |        0 |     32445    122933 |
|    909508 |    5984   579562 34166127 |    65214    41922     44 |        0 |     55510    244665 |
|   1464288 |    5962   494221 32595992 |    80849    42337     30 |        0 |     84413    466920 |
=====================================================================================================
Number of solutions   : 0
Canonical subgraphs   : 102559         (62 /sec)
          order  3    : 1              (200000 /sec)
          order  4    : 1              (500000 /sec)
          order  5    : 1              (200000 /sec)
          order  6    : 1              (55556 /sec)
          order  7    : 2              (10471 /sec)
          order  8    : 6              (2692 /sec)
          order  9    : 16             (638 /sec)
          order 10    : 85             (231 /sec)
          order 11    : 637            (156 /sec)
          order 12    : 4861           (99 /sec)
          order 13    : 20459          (67 /sec)
          order 14    : 37145          (72 /sec)
          order 15    : 20791          (59 /sec)
          order 16    : 7820           (45 /sec)
          order 17    : 6473           (42 /sec)
          order 18    : 2867           (41 /sec)
          order 19    : 552            (50 /sec)
          order 20    : 398            (55 /sec)
          order 21    : 443            (53 /sec)
          order 22    : 0              (-nan /sec)
Noncanonical subgraphs: 603297         (517 /sec)
          order  3    : 0              (-nan /sec)
          order  4    : 0              (-nan /sec)
          order  5    : 0              (-nan /sec)
          order  6    : 0              (-nan /sec)
          order  7    : 0              (-nan /sec)
          order  8    : 0              (-nan /sec)
          order  9    : 0              (-nan /sec)
          order 10    : 0              (-nan /sec)
          order 11    : 0              (-nan /sec)
          order 12    : 0              (-nan /sec)
          order 13    : 102242         (1369 /sec)
          order 14    : 469019         (465 /sec)
          order 15    : 25047          (532 /sec)
          order 16    : 6294           (246 /sec)
          order 17    : 57             (459 /sec)
          order 18    : 98             (1849 /sec)
          order 19    : 15             (1746 /sec)
          order 20    : 4              (127 /sec)
          order 21    : 0              (-nan /sec)
Canonicity checking   : 1654.68 s
Noncanonicity checking: 1165.92 s
Total canonicity time : 2820.6 s
database reductions   : 74
restarts              : 3451
conflicts             : 1779938        (440 /sec)
decisions             : 2685875        (0.00 % random) (665 /sec)
propagations          : 229825968      (56872 /sec)
conflict literals     : 135178668      (54.94 % deleted)
actual reward         : 0.087170
Memory used           : 487.00 MB
CPU time              : 4041.08 s

UNSATISFIABLE
